
Gurobi 9.5.1 (linux64) logging started Wed Jun  8 05:15:30 2022

Set parameter LogFile to value "../results/logs/log_com-dblp.ungraph_3_2_2022_06_08_00_53.log"
Gurobi Optimizer version 9.5.1 build v9.5.1rc2 (linux64)
Thread count: 8 physical cores, 8 logical processors, using up to 8 threads
Optimize a model with 22021 rows, 634160 columns and 227191 nonzeros
Model fingerprint: 0x53e1e102
Variable types: 0 continuous, 634160 integer (634160 binary)
Coefficient statistics:
  Matrix range     [1e+00, 3e+00]
  Objective range  [1e+00, 1e+00]
  Bounds range     [1e+00, 1e+00]
  RHS range        [1e+00, 2e+00]

User MIP start produced solution with objective 204044 (0.17s)
Loaded user MIP start with objective 204044

Presolve removed 14301 rows and 622527 columns
Presolve time: 1.80s
Presolved: 7720 rows, 11633 columns, 33508 nonzeros
Variable types: 0 continuous, 11633 integer (10654 binary)

Root relaxation: objective 2.044863e+05, 2421 iterations, 0.02 seconds (0.01 work units)

    Nodes    |    Current Node    |     Objective Bounds      |     Work
 Expl Unexpl |  Obj  Depth IntInf | Incumbent    BestBd   Gap | It/Node Time

     0     0 204486.283    0  500 204044.000 204486.283  0.22%     -    2s
     0     0 204068.303    0   55 204044.000 204068.303  0.01%     -    2s
     0     0 204057.000    0   50 204044.000 204057.000  0.01%     -    2s
     0     0 204056.500    0   47 204044.000 204056.500  0.01%     -    2s
     0     0 204052.867    0   28 204044.000 204052.867  0.00%     -    2s
     0     0 204049.776    0   31 204044.000 204049.776  0.00%     -    2s
     0     0 204049.776    0  183 204044.000 204049.776  0.00%     -    2s
     0     0 204047.784    0   23 204044.000 204047.784  0.00%     -    2s
     0     0 204046.186    0   23 204044.000 204046.186  0.00%     -    2s
     0     0 204045.000    0    8 204044.000 204045.000  0.00%     -    2s
     0     0 204045.000    0    7 204044.000 204045.000  0.00%     -    2s
H    0     0                    204045.00000 204045.000  0.00%     -    2s

Cutting planes:
  Cover: 1
  GUB cover: 1

Explored 1 nodes (3810 simplex iterations) in 2.86 seconds (1.84 work units)
Thread count was 8 (of 8 available processors)

Solution count 3: 204045 204044 204042 

Optimal solution found (tolerance 0.00e+00)
Best objective 2.040450000000e+05, best bound 2.040450000000e+05, gap 0.0000%
